AES/1_5_4/ssaes_r1-20_c5_rw1_e4_f0_k1-20_aes_1base_box_aes_mc_bidirectional/ExperimentMinisat_r10_k14cnf_2011-10-30-012224/Result
WARNING: for repeatability, setting FPU to use double precision
============================[ Problem Statistics ]=============================
|                                                                             |
|  Number of variables:           940                                         |
|  Number of clauses:            4100                                         |
|  Parse time:                   0.00 s                                       |
|  Eliminated clauses:           0.01 Mb                                      |
|  Simplification time:          0.00 s                                       |
|                                                                             |
=============================[ Search Statistics ]==============================
| Conflicts  |          ORIGINAL         |          LEARNT          | Progress |
|            |    Vars  Clauses Literals |    Limit  Clauses Lit/Cl |          |
================================================================================
|        100 |     640     3180    10400 |     1166      100     22 |  8.511 % |
|        250 |     640     3180    10400 |     1282      250     22 |  8.511 % |
|        475 |     640     3180    10400 |     1410      475     22 |  8.511 % |
|        812 |     640     3180    10400 |     1551      812     24 |  8.511 % |
|       1318 |     640     3180    10400 |     1707     1318     24 |  8.511 % |
|       2077 |     640     3180    10400 |     1877     1174     21 |  8.511 % |
|       3216 |     640     3180    10400 |     2065     1310     21 |  8.511 % |
|       4924 |     640     3180    10400 |     2272     1902     20 |  8.511 % |
|       7486 |     640     3180    10400 |     2499     2081     18 |  8.511 % |
|      11330 |     640     3180    10400 |     2749     1995     19 |  8.511 % |
|      17096 |     640     3180    10400 |     3024     2021     17 |  8.511 % |
|      25745 |     640     3180    10400 |     3326     2799     20 |  8.511 % |
|      38719 |     640     3180    10400 |     3659     1924     17 |  8.511 % |
|      58180 |     640     3180    10400 |     4025     2471     19 |  8.511 % |
|      87372 |     640     3180    10400 |     4427     2633     18 |  8.511 % |
|     131161 |     640     3180    10400 |     4870     3229     18 |  8.511 % |
|     196845 |     640     3180    10400 |     5357     3971     19 |  8.511 % |
|     295371 |     640     3180    10400 |     5893     3877     16 |  8.511 % |
|     443160 |     640     3180    10400 |     6482     4366     15 |  8.511 % |
|     664843 |     640     3180    10400 |     7131     4923     16 |  8.511 % |
|     997368 |     640     3180    10400 |     7844     4015     12 |  8.511 % |
|    1496156 |     640     3180    10400 |     8628     5169     15 |  8.511 % |
|    2244338 |     640     3180    10400 |     9491     5456     14 |  8.511 % |
===============================================================================
restarts              : 4602
conflicts             : 2642052        (16975 /sec)
decisions             : 2896685        (0.00 % random) (18612 /sec)
propagations          : 626265663      (4023826 /sec)
conflict literals     : 51736693       (42.96 % deleted)
Memory used           : 10.00 MB
CPU time              : 155.639 s

SATISFIABLE
